1 1 1 0 0 0 1 1 0 
0 50 11 32 37 34 22 5 31 
50 0 23 14 20 9 39 42 45 
11 23 0 46 42 7 31 7 6 
32 14 46 0 20 47 16 13 47 
37 20 42 20 0 37 27 49 27 
34 9 7 47 37 0 29 39 12 
22 39 31 16 27 29 0 13 25 
5 42 7 13 49 39 13 0 41 
31 45 6 47 27 12 25 41 0 
4 32
1P 3P 9B 6B 2P 5B 4B 7P 8P = 112